results/res_prop_muc/res_Cimatti_mathsat_cores/QF_RDL/fischer3-mutex-15.smt.smt2.out
### boolMucExtractionTime 68863329
