results/res_prop_muc/res_Cimatti_mathsat_cores/QF_RDL/fischer3-mutex-15.smt.smt2.res
unsat
( c10
  c1005
  c1007
  c1008
  c1009
  c1011
  c1015
  c1016
  c1017
  c1021
  c1024
  c1026
  c1027
  c103
  c1030
  c1035
  c1039
  c1041
  c1042
  c1043
  c1046
  c1047
  c1048
  c105
  c1053
  c1054
  c1056
  c1057
  c1059
  c1062
  c1063
  c1064
  c1065
  c1066
  c1067
  c1068
  c1076
  c1077
  c1078
  c1079
  c1086
  c1087
  c1089
  c1092
  c1096
  c1097
  c1098
  c110
  c1102
  c1105
  c1107
  c1108
  c111
  c1111
  c1114
  c1116
  c1119
  c1120
  c1121
  c1126
  c1127
  c1129
  c1130
  c1132
  c1135
  c1136
  c1137
  c1138
  c1139
  c1140
  c1141
  c1149
  c1150
  c1151
  c1152
  c1159
  c1160
  c1162
  c1165
  c1169
  c1170
  c1171
  c1175
  c1178
  c118
  c1180
  c1181
  c1184
  c1187
  c1189
  c1192
  c1193
  c1194
  c1199
  c120
  c1200
  c1202
  c1205
  c1208
  c1209
  c1210
  c1211
  c1212
  c1213
  c1214
  c1222
  c1223
  c1230
  c1234
  c1238
  c1242
  c1246
  c1250
  c1251
  c1252
  c1253
  c1254
  c1257
  c1259
  c126
  c1260
  c1267
  c1269
  c127
  c1270
  c1278
  c1279
  c128
  c1280
  c1281
  c1282
  c1283
  c1284
  c1285
  c1286
  c1287
  c1288
  c1289
  c1293
  c1297
  c13
  c130
  c1301
  c1305
  c1307
  c1309
  c131
  c1310
  c1311
  c1313
  c1317
  c1318
  c1319
  c1320
  c1323
  c1327
  c1328
  c1329
  c1332
  c1333
  c1336
  c1338
  c1339
  c1341
  c1342
  c1347
  c1351
  c1353
  c1355
  c1357
  c1358
  c1359
  c1360
  c1365
  c1366
  c1368
  c1369
  c1370
  c1371
  c1374
  c1375
  c1376
  c1377
  c1378
  c1379
  c1380
  c1388
  c1390
  c1391
  c1399
  c140
  c1401
  c1402
  c1404
  c1408
  c1409
  c141
  c1410
  c1414
  c1417
  c1419
  c1420
  c1426
  c1427
  c1428
  c143
  c1431
  c1432
  c1433
  c1438
  c1439
  c1441
  c1442
  c1443
  c1444
  c1447
  c1448
  c1449
  c1450
  c1451
  c1452
  c1453
  c1461
  c1463
  c1464
  c1467
  c1471
  c1472
  c1473
  c1474
  c1477
  c1481
  c1482
  c1483
  c1486
  c1487
  c1490
  c1492
  c1493
  c1496
  c1499
  c15
  c150
  c1501
  c1503
  c1504
  c1505
  c1506
  c1511
  c1512
  c1514
  c1515
  c1516
  c1517
  c1520
  c1521
  c1522
  c1523
  c1524
  c1525
  c1526
  c153
  c1534
  c1535
  c1542
  c1546
  c1550
  c1554
  c1558
  c156
  c1562
  c1563
  c1564
  c1565
  c1566
  c1569
  c1571
  c1572
  c1579
  c1581
  c1582
  c1590
  c1591
  c1592
  c1593
  c1594
  c1595
  c1596
  c1597
  c1598
  c1599
  c160
  c1600
  c1601
  c1605
  c1609
  c161
  c1613
  c1617
  c1619
  c162
  c1620
  c1621
  c1622
  c1623
  c1628
  c1630
  c1632
  c1633
  c1635
  c1639
  c1640
  c1641
  c1645
  c1648
  c1650
  c1651
  c1654
  c1659
  c166
  c1663
  c1665
  c1666
  c1667
  c1670
  c1671
  c1672
  c1677
  c1678
  c1680
  c1682
  c1686
  c1687
  c1688
  c1689
  c169
  c1690
  c1691
  c1692
  c1700
  c1701
  c1702
  c1703
  c171
  c1710
  c1711
  c1713
  c1716
  c172
  c1720
  c1721
  c1722
  c1726
  c1729
  c1731
  c1732
  c1735
  c1738
  c1740
  c1743
  c1744
  c1745
  c1748
  c1750
  c1751
  c1753
  c1754
  c1755
  c1759
  c1760
  c1761
  c1762
  c1763
  c1764
  c1765
  c1773
  c1774
  c1775
  c1776
  c1779
  c1782
  c1784
  c1786
  c1787
  c1789
  c1793
  c1794
  c1795
  c1799
  c1802
  c1804
  c1805
  c1808
  c1811
  c1812
  c1813
  c1816
  c1817
  c1818
  c1823
  c1824
  c1826
  c1827
  c1828
  c183
  c1832
  c1833
  c1834
  c1835
  c1836
  c1837
  c1838
  c184
  c1846
  c1847
  c185
  c1854
  c1858
  c1862
  c1866
  c1870
  c1874
  c1875
  c1877
  c1878
  c1881
  c1883
  c1884
  c1891
  c1893
  c1894
  c19
  c1902
  c1903
  c1904
  c1905
  c1906
  c1907
  c1908
  c1909
  c191
  c1910
  c1911
  c1912
  c1913
  c1917
  c1920
  c1921
  c1925
  c1929
  c193
  c1931
  c1932
  c1933
  c1934
  c1935
  c1937
  c1940
  c1942
  c1944
  c1945
  c1946
  c1947
  c1952
  c1953
  c1956
  c1957
  c1960
  c1962
  c1963
  c1965
  c1966
  c1971
  c1975
  c1977
  c1978
  c1979
  c1981
  c1982
  c1983
  c1984
  c1989
  c199
  c1990
  c1992
  c1993
  c1994
  c1998
  c1999
  c200
  c2000
  c2001
  c2002
  c2003
  c2004
  c201
  c2012
  c2013
  c2014
  c2015
  c2016
  c2018
  c2022
  c2023
  c2025
  c2027
  c2028
  c203
  c2033
  c2034
  c2037
  c2038
  c204
  c2041
  c2043
  c2044
  c2046
  c2047
  c2050
  c2052
  c2053
  c2054
  c2055
  c2056
  c2062
  c2063
  c2065
  c2066
  c2067
  c2071
  c2072
  c2073
  c2074
  c2075
  c2076
  c2077
  c2085
  c2086
  c2087
  c2088
  c2089
  c2091
  c2095
  c2096
  c2098
  c2100
  c2101
  c2106
  c2107
  c2110
  c2111
  c2114
  c2116
  c2117
  c2119
  c2120
  c2123
  c2125
  c2127
  c2128
  c2129
  c213
  c2130
  c2135
  c2136
  c2138
  c2139
  c214
  c2140
  c2144
  c2145
  c2146
  c2147
  c2148
  c2149
  c2150
  c2158
  c2159
  c216
  c2166
  c2169
  c2170
  c2174
  c2178
  c2182
  c2185
  c2186
  c2187
  c2189
  c2190
  c2193
  c2195
  c2196
  c2203
  c2205
  c2206
  c2214
  c2215
  c2216
  c2217
  c2218
  c2219
  c2220
  c2221
  c2222
  c2223
  c2224
  c2225
  c2229
  c223
  c2233
  c2237
  c2240
  c2241
  c2243
  c2244
  c2245
  c2246
  c2247
  c2252
  c2254
  c2256
  c2257
  c2259
  c226
  c2262
  c2264
  c2265
  c2268
  c2269
  c2272
  c2274
  c2275
  c2277
  c2278
  c2283
  c2286
  c2287
  c2289
  c229
  c2291
  c2294
  c2295
  c2296
  c2299
  c2301
  c2302
  c2310
  c2311
  c2312
  c2313
  c2314
  c2315
  c2316
  c2324
  c2325
  c2326
  c2327
  c2328
  c2330
  c2334
  c2335
  c2337
  c2339
  c2340
  c2343
  c2345
  c2346
  c2349
  c235
  c2350
  c2353
  c2355
  c2356
  c2358
  c2359
  c2362
  c2364
  c2366
  c2367
  c2368
  c2369
  c2372
  c2374
  c2375
  c2376
  c2377
  c2383
  c2384
  c2385
  c2386
  c2387
  c2388
  c2389
  c239
  c2397
  c2398
  c2399
  c2400
  c2401
  c2403
  c2407
  c2408
  c2410
  c2412
  c2413
  c2416
  c2418
  c2419
  c242
  c2422
  c2423
  c2426
  c2428
  c2429
  c2431
  c2432
  c2435
  c2437
  c2439
  c244
  c2440
  c2441
  c2442
  c2445
  c2447
  c2448
  c245
  c2451
  c2456
  c2457
  c2458
  c2459
  c2460
  c2461
  c2462
  c2470
  c2471
  c2478
  c2482
  c2486
  c2490
  c2494
  c2497
  c2498
  c2499
  c25
  c2500
  c2502
  c2505
  c2507
  c2508
  c2515
  c2517
  c2518
  c2526
  c2527
  c2528
  c2529
  c2530
  c2531
  c2532
  c2533
  c2534
  c2535
  c2536
  c2537
  c2541
  c2545
  c2549
  c2552
  c2553
  c2555
  c2556
  c2557
  c256
  c2561
  c2565
  c2566
  c2568
  c257
  c2570
  c2571
  c2574
  c2576
  c2577
  c258
  c2580
  c2581
  c2584
  c2586
  c2587
  c2589
  c2590
  c2595
  c2599
  c2601
  c2603
  c2605
  c2606
  c2607
  c2608
  c2611
  c2613
  c2614
  c2617
  c2622
  c2623
  c2624
  c2625
  c2626
  c2627
  c2628
  c2636
  c2637
  c2638
  c264
  c2646
  c2647
  c2649
  c2652
  c2656
  c2657
  c2658
  c266
  c2662
  c2665
  c2667
  c2668
  c2670
  c2671
  c2674
  c2676
  c2678
  c2679
  c2680
  c2681
  c2684
  c2686
  c2687
  c2690
  c2695
  c2696
  c2697
  c2698
  c2699
  c2700
  c2701
  c2709
  c2710
  c2711
  c2718
  c272
  c2720
  c2722
  c2723
  c2724
  c2725
  c2728
  c273
  c2730
  c2731
  c2735
  c2738
  c274
  c2740
  c2741
  c2743
  c2744
  c2747
  c2749
  c2751
  c2752
  c2753
  c2754
  c2757
  c2759
  c276
  c2760
  c2768
  c2769
  c277
  c2770
  c2771
  c2772
  c2773
  c2774
  c2782
  c2783
  c2790
  c2793
  c2794
  c2798
  c2801
  c2802
  c2806
  c2809
  c2810
  c2811
  c2812
  c2817
  c2819
  c2820
  c2827
  c2829
  c2830
  c2838
  c2839
  c2840
  c2841
  c2842
  c2843
  c2844
  c2845
  c2846
  c2847
  c2848
  c2849
  c2853
  c2856
  c2857
  c286
  c2861
  c2864
  c2865
  c2867
  c2868
  c2873
  c2877
  c2879
  c2882
  c2887
  c2888
  c2892
  c2893
  c2898
  c2899
  c2901
  c2902
  c2907
  c2910
  c2911
  c2913
  c2915
  c2916
  c2917
  c2918
  c2919
  c2920
  c2923
  c2925
  c2926
  c2927
  c2928
  c2929
  c2930
  c2934
  c2935
  c2936
  c2937
  c2938
  c2939
  c294
  c2940
  c2948
  c2949
  c2958
  c2960
  c2968
  c2969
  c2973
  c2974
  c2979
  c298
  c2980
  c2982
  c2983
  c2986
  c2988
  c2989
  c2990
  c2991
  c2992
  c2993
  c2996
  c2998
  c2999
  c3000
  c3001
  c3002
  c3003
  c3007
  c3008
  c3009
  c3010
  c3011
  c3012
  c3013
  c302
  c3021
  c3022
  c3023
  c3031
  c3032
  c3034
  c3037
  c3041
  c3042
  c3046
  c3047
  c3052
  c3053
  c3055
  c3056
  c3059
  c306
  c3061
  c3062
  c3064
  c3065
  c3066
  c3069
  c3071
  c3072
  c3073
  c3074
  c3076
  c3080
  c3081
  c3082
  c3083
  c3084
  c3085
  c3086
  c3094
  c3095
  c31
  c310
  c3102
  c3105
  c3106
  c3110
  c3113
  c3114
  c3118
  c3121
  c3122
  c3123
  c3129
  c3131
  c3132
  c3139
  c314
  c3141
  c3142
  c3150
  c3151
  c3152
  c3153
  c3154
  c3155
  c3156
  c3157
  c3158
  c3159
  c3160
  c3161
  c3165
  c3168
  c3169
  c3173
  c3176
  c3177
  c3179
  c3180
  c3189
  c3190
  c3199
  c32
  c3200
  c3208
  c3210
  c3211
  c3213
  c3214
  c3219
  c3222
  c3223
  c3227
  c3228
  c3230
  c3231
  c3232
  c3235
  c3237
  c3238
  c3239
  c3240
  c3242
  c3246
  c3247
  c3248
  c3249
  c3250
  c3251
  c3252
  c3260
  c3261
  c3270
  c3271
  c3280
  c3281
  c3289
  c3291
  c3292
  c3294
  c3295
  c33
  c3300
  c3301
  c3303
  c3304
  c3305
  c3308
  c3310
  c3311
  c3312
  c3313
  c3315
  c3319
  c3320
  c3321
  c3322
  c3323
  c3324
  c3325
  c3334
  c3335
  c3343
  c3344
  c3353
  c3354
  c3362
  c3364
  c3365
  c3367
  c3368
  c3373
  c3374
  c3376
  c3377
  c3378
  c3381
  c3383
  c3384
  c3385
  c3386
  c3388
  c3392
  c3393
  c3394
  c3395
  c3396
  c3397
  c3398
  c34
  c3406
  c3407
  c3414
  c3417
  c3418
  c3422
  c3425
  c3426
  c3430
  c3433
  c3434
  c344
  c3441
  c3443
  c3444
  c345
  c3451
  c3453
  c3454
  c346
  c3462
  c3463
  c3464
  c3465
  c3466
  c3467
  c3468
  c3469
  c347
  c3470
  c3471
  c3472
  c3473
  c3477
  c348
  c3480
  c3481
  c3485
  c3488
  c3489
  c349
  c3492
  c35
  c3501
  c3511
  c3520
  c3522
  c3523
  c3525
  c3526
  c353
  c3531
  c3534
  c3535
  c3539
  c3540
  c3547
  c3549
  c3551
  c3552
  c3554
  c3555
  c3558
  c3559
  c3560
  c3561
  c3562
  c3563
  c3564
  c357
  c3573
  c3582
  c3592
  c36
  c3601
  c3603
  c3604
  c3606
  c3607
  c361
  c3612
  c3613
  c3620
  c3622
  c3624
  c3625
  c3627
  c3628
  c3631
  c3632
  c3633
  c3634
  c3635
  c3636
  c3637
  c3646
  c365
  c3655
  c3667
  c3674
  c3676
  c3677
  c3679
  c3680
  c3686
  c369
  c3693
  c3697
  c3698
  c37
  c3700
  c3701
  c3704
  c3705
  c3706
  c3707
  c3708
  c3709
  c371
  c3710
  c3718
  c3719
  c372
  c3726
  c3729
  c3730
  c3734
  c3737
  c3738
  c374
  c3742
  c3745
  c3746
  c3753
  c3755
  c3756
  c3763
  c3765
  c3766
  c3774
  c3775
  c3776
  c3777
  c3778
  c3779
  c3780
  c3781
  c3782
  c3783
  c3784
  c3785
  c3789
  c3792
  c3793
  c3797
  c38
  c3800
  c3801
  c3804
  c381
  c3813
  c3823
  c3832
  c3834
  c384
  c3843
  c3846
  c3847
  c3852
  c3861
  c3863
  c3864
  c3865
  c3866
  c3867
  c387
  c3870
  c3871
  c3872
  c3873
  c3874
  c3875
  c3876
  c3885
  c3894
  c39
  c3904
  c391
  c3913
  c3915
  c392
  c3925
  c393
  c3934
  c3936
  c3937
  c3938
  c3939
  c3940
  c3943
  c3944
  c3945
  c3946
  c3947
  c3948
  c3949
  c3958
  c3967
  c397
  c3977
  c3986
  c3988
  c3998
  c40
  c400
  c4005
  c4009
  c4010
  c4011
  c4012
  c4013
  c4016
  c4017
  c4018
  c4019
  c4020
  c4021
  c4022
  c403
  c4030
  c4031
  c4038
  c4041
  c4042
  c4046
  c4049
  c405
  c4050
  c4054
  c4057
  c4058
  c406
  c4065
  c4067
  c4068
  c4075
  c4077
  c4078
  c4086
  c4087
  c4088
  c4089
  c4090
  c4091
  c4092
  c4093
  c4094
  c4095
  c4096
  c4097
  c41
  c4101
  c4105
  c4109
  c411
  c4113
  c4115
  c4125
  c4135
  c4144
  c415
  c4155
  c4159
  c4164
  c4175
  c4176
  c4177
  c4178
  c4179
  c4182
  c4183
  c4184
  c4186
  c4187
  c4196
  c4206
  c4216
  c422
  c4225
  c423
  c4237
  c424
  c4248
  c4249
  c4250
  c4251
  c4252
  c4255
  c4256
  c4257
  c4259
  c4260
  c4269
  c4279
  c4289
  c4298
  c430
  c4310
  c432
  c4321
  c4322
  c4323
  c4324
  c4325
  c4328
  c4329
  c4330
  c4332
  c4333
  c4342
  c4343
  c435
  c4350
  c4358
  c4371
  c4372
  c4377
  c438
  c4380
  c4387
  c4389
  c439
  c4390
  c4398
  c4399
  c440
  c4403
  c4405
  c4406
  c4407
  c4408
  c4409
  c441
  c442
  c4428
  c443
  c4438
  c444
  c4448
  c4458
  c4476
  c4485
  c4494
  c45
  c4509
  c4519
  c452
  c4529
  c453
  c4539
  c4549
  c455
  c4558
  c4567
  c4582
  c4592
  c4602
  c4612
  c462
  c4622
  c4631
  c4640
  c465
  c4654
  c4662
  c4666
  c4670
  c4674
  c4678
  c468
  c4682
  c4684
  c4689
  c4691
  c4692
  c4709
  c4711
  c4712
  c4713
  c4714
  c4715
  c4716
  c4717
  c4718
  c4719
  c472
  c4720
  c4721
  c4723
  c4727
  c473
  c4731
  c4734
  c4738
  c474
  c4742
  c4747
  c4751
  c4755
  c4759
  c4763
  c4767
  c4770
  c4771
  c4774
  c4775
  c4778
  c4779
  c478
  c4782
  c4783
  c4786
  c4787
  c4790
  c4791
  c4794
  c4795
  c4796
  c4798
  c4799
  c4800
  c4802
  c4803
  c4804
  c4806
  c4807
  c4808
  c481
  c4810
  c4811
  c4812
  c4814
  c4815
  c4816
  c4818
  c4819
  c4820
  c4822
  c4823
  c4824
  c4826
  c4827
  c4828
  c4830
  c4831
  c4832
  c4834
  c4835
  c4836
  c4838
  c4839
  c484
  c4840
  c4842
  c4843
  c4844
  c4846
  c4847
  c4848
  c4850
  c4851
  c4852
  c4854
  c4855
  c4856
  c4858
  c4859
  c486
  c4860
  c4862
  c4863
  c4864
  c4866
  c4867
  c4868
  c487
  c4870
  c4871
  c4872
  c4874
  c4875
  c4876
  c4878
  c4879
  c4880
  c4882
  c4883
  c4884
  c4886
  c4887
  c4888
  c4890
  c4891
  c4892
  c4894
  c4895
  c4896
  c4898
  c4899
  c49
  c4900
  c4902
  c4903
  c4904
  c4905
  c4906
  c4907
  c4908
  c4911
  c4912
  c4913
  c4914
  c4915
  c4916
  c4918
  c4920
  c4924
  c495
  c496
  c497
  c503
  c505
  c508
  c511
  c512
  c513
  c514
  c515
  c516
  c517
  c525
  c526
  c528
  c53
  c535
  c538
  c541
  c545
  c546
  c547
  c551
  c554
  c557
  c559
  c568
  c569
  c57
  c570
  c576
  c578
  c581
  c584
  c585
  c586
  c587
  c588
  c589
  c59
  c590
  c598
  c599
  c6
  c60
  c606
  c610
  c614
  c618
  c62
  c622
  c626
  c656
  c657
  c658
  c659
  c660
  c661
  c665
  c669
  c673
  c677
  c681
  c683
  c684
  c686
  c693
  c695
  c696
  c699
  c703
  c704
  c705
  c709
  c712
  c714
  c715
  c718
  c72
  c723
  c727
  c730
  c734
  c735
  c736
  c742
  c744
  c747
  c75
  c750
  c751
  c752
  c753
  c754
  c755
  c756
  c764
  c765
  c767
  c774
  c776
  c777
  c780
  c784
  c785
  c786
  c79
  c790
  c793
  c795
  c796
  c799
  c8
  c80
  c803
  c807
  c808
  c809
  c81
  c815
  c817
  c820
  c823
  c824
  c825
  c826
  c827
  c828
  c829
  c837
  c838
  c840
  c847
  c849
  c85
  c850
  c853
  c857
  c858
  c859
  c863
  c866
  c869
  c871
  c872
  c876
  c88
  c880
  c881
  c882
  c888
  c890
  c893
  c896
  c897
  c898
  c899
  c90
  c900
  c901
  c902
  c91
  c910
  c911
  c918
  c922
  c926
  c930
  c934
  c938
  c939
  c942
  c945
  c948
  c955
  c957
  c966
  c967
  c968
  c969
  c970
  c971
  c972
  c973
  c974
  c975
  c976
  c977
  c981
  c985
  c989
  c99
  c993
  c995
  c996
  c997
  c998 )
